c SAT Generator for power-law distributed variable frequencies
c -g u -v 20 -c 91 -k 3 -p 2.750000 -b 3.200000 -f /home/schmidt/Devel/ni-kop-sat/data/ensemble/ruf20-91/ruf20-91-844 -u 1 -U 1 -s 1224525382
p cnf 20 91
16 17 18 0
9 14 15 0
-17 18 20 0
-4 -12 17 0
-6 7 10 0
14 17 -20 0
6 -10 16 0
2 -7 11 0
1 3 -18 0
1 2 20 0
7 10 19 0
9 11 -17 0
13 -16 17 0
-3 14 -19 0
-11 -12 -14 0
-5 -10 -20 0
-3 18 -20 0
7 9 18 0
2 -14 -19 0
2 11 -15 0
-1 4 9 0
-9 11 14 0
8 -16 20 0
2 -13 17 0
-6 -7 -15 0
-1 -8 -11 0
11 -12 14 0
-14 -15 -18 0
1 -3 17 0
5 -13 -15 0
5 7 -15 0
-5 9 10 0
9 -14 -16 0
3 -18 19 0
-8 10 -13 0
2 3 11 0
-2 -10 14 0
-7 -10 -19 0
4 9 -12 0
3 5 -18 0
-1 7 -10 0
9 -12 -18 0
5 -13 19 0
-1 -8 10 0
-10 15 20 0
-3 -12 -18 0
3 -6 18 0
3 9 11 0
-13 19 20 0
-2 -7 20 0
-4 -15 -16 0
1 -7 -18 0
-5 18 -20 0
8 -10 19 0
3 -5 -19 0
-6 -7 19 0
4 12 -17 0
9 -12 17 0
-9 17 -19 0
1 -8 -9 0
-5 6 12 0
15 -16 -19 0
-5 11 -13 0
-13 15 -18 0
-3 -18 20 0
-6 -17 18 0
5 8 11 0
5 11 12 0
11 12 20 0
4 -5 7 0
-6 -16 19 0
-3 5 8 0
2 4 -5 0
8 17 -18 0
-7 -15 17 0
3 11 -16 0
-1 8 12 0
4 -6 -18 0
1 -3 14 0
3 7 8 0
-3 -9 13 0
7 -13 18 0
7 -11 13 0
9 12 13 0
9 11 18 0
3 -4 -19 0
3 5 -10 0
-1 -2 9 0
-1 -5 13 0
7 -12 -20 0
-4 -7 20 0
